p cnf 12 50 
-5 12 -10 0
3 10 -7 0
6 10 -3 0
5 9 7 0
1 4 -7 0
4 9 3 0
5 9 2 0
-10 -9 5 0
-5 -10 -6 0
-4 5 -9 0
8 11 -2 0
-11 -4 1 0
2 -5 1 0
-9 -6 4 0
-10 5 1 0
11 -8 2 0
4 1 -8 0
4 7 9 0
7 -3 -8 0
5 -11 -3 0
-11 5 -9 0
6 2 11 0
-7 -6 -5 0
8 -4 7 0
-3 -11 -4 0
-1 -3 -9 0
-10 1 -12 0
2 10 8 0
8 -6 11 0
-3 6 -8 0
9 -11 -8 0
-7 -5 8 0
10 1 4 0
8 -4 9 0
-10 -6 -7 0
-7 3 -8 0
-3 6 2 0
-4 10 -3 0
-8 -10 -2 0
-9 2 10 0
-8 12 3 0
-8 -6 -3 0
-7 -12 6 0
-10 3 8 0
-2 12 11 0
2 -6 12 0
-12 -10 -1 0
2 -4 10 0
-2 9 -12 0
-9 -12 -5 0
